# Solution for model GasLib-40
# Objective value = 38.2685871967883
loadshed[innode_1] 0
loadshed[innode_2] 0
loadshed[innode_3] 0
loadshed[innode_4] 0
loadshed[innode_5] 0
loadshed[innode_6] 0
loadshed[innode_7] 0
loadshed[innode_8] 0
loadshed[source_1] -1.7209512910095870e-01
loadshed[source_2] -5.6439162784629460e-03
loadshed[source_3] 0.419806981084884
loadshed[sink_1] 0
loadshed[sink_2] 0
loadshed[sink_3] 0
loadshed[sink_4] 0
loadshed[sink_5] 0
loadshed[sink_6] 0
loadshed[sink_7] 0
loadshed[sink_8] 0
loadshed[sink_9] 0
loadshed[sink_10] 0
loadshed[sink_11] 0
loadshed[sink_12] 1
loadshed[sink_13] 0
loadshed[sink_14] 0
loadshed[sink_15] 0
loadshed[sink_16] 0
loadshed[sink_17] 0
loadshed[sink_18] 0
loadshed[sink_19] 0
loadshed[sink_20] 0
loadshed[sink_21] 1
loadshed[sink_22] 0
loadshed[sink_23] 0
loadshed[sink_24] 3.3999004515393405e-01
loadshed[sink_25] 0
loadshed[sink_26] 0
loadshed[sink_27] 0
loadshed[sink_28] 0
loadshed[sink_29] 0
flow[source_1,sink_3] 1.8529684454155085e+02
flow[innode_1,sink_16] 1.6354166666666970e+01
flow[innode_6,sink_13] 2.2756291141661514e+01
flow[sink_13,sink_14] 6.4021244749948458e+00
flow[sink_14,sink_10] -9.9520421916718220e+00
flow[sink_25,sink_26] 1.3014641750094634e+02
flow[sink_26,sink_9] 3.2708333333334551e+01
flow[sink_9,sink_18] 1.6354166666667879e+01
flow[sink_26,sink_4] 8.1083917500945120e+01
flow[sink_4,sink_20] -1.5582806273466378e+01
flow[sink_18,sink_6] 0
flow[sink_25,innode_8] -1.5258851120821447e+02
flow[sink_6,sink_7] -4.9062500000000313e+01
flow[sink_6,sink_22] 3.2708333333333641e+01
flow[sink_7,sink_24] 1.0793912803211706e+01
flow[sink_22,sink_1] 1.6354166666666970e+01
flow[sink_24,sink_21] 0
flow[sink_21,sink_12] 0
flow[sink_7,sink_5] -7.6210579469878681e+01
flow[sink_5,sink_17] -9.2564746136545352e+01
flow[sink_17,sink_4] -8.0312557107744823e+01
flow[sink_17,sink_8] -2.8606355695467204e+01
flow[sink_3,sink_23] 16.3541666666697
flow[sink_8,sink_20] -4.4960522362133872e+01
flow[sink_25,sink_20] 7.6897495302266975e+01
flow[sink_25,sink_15] -9.3565859403326627e+01
flow[sink_15,sink_29] -6.1450338832005983e+01
flow[sink_29,sink_28] 1.6354166666667879e+01
flow[sink_29,sink_2] 6.4823853904653973e+01
flow[sink_2,sink_15] 4.8469687237987308e+01
flow[sink_29,innode_7] -1.5898252606999449e+02
flow[innode_4,sink_19] 7.5368708858338451e+01
flow[sink_19,innode_3] 0
flow[innode_4,innode_5] 1.6354166666679703e+01
flow[sink_27,innode_5] -1.6354166666679703e+01
flow[sink_27,sink_19] 0
flow[sink_10,sink_11] 3.2708333333333641e+01
flow[sink_10,innode_2] -5.9014542191672035e+01
flow[sink_10,innode_3] 0
flow[innode_6,sink_25] -2.2756291141661514e+01
flow[sink_11,innode_1] 1.6354166666666970e+01
flow[sink_19,innode_2] 5.9014542191672035e+01
flow[source_3,innode_4] 9.1722875525018154e+01
flow[source_2,innode_7] 1.5898252606999449e+02
flow[sink_3,innode_8] 1.5258851120821447e+02
pressure[innode_1] 7.4689007963108622e+01
pressure[innode_2] 77.959871563584
pressure[innode_3] 7.4840709270712168e+01
pressure[innode_4] 81.01325
pressure[innode_5] 8.1002000741808772e+01
pressure[innode_6] 7.4506900426389180e+01
pressure[innode_7] 81.01325
pressure[innode_8] 8.0393873434657920e+01
pressure[source_1] 81.01325
pressure[source_2] 81.01325
pressure[source_3] 81.01325
pressure[sink_1] 1.0596887104777670e+01
pressure[sink_2] 75.1190288633967
pressure[sink_3] 8.0393873434657920e+01
pressure[sink_4] 5.5031545546933089e+01
pressure[sink_5] 4.5066859926775955e+01
pressure[sink_6] 1.2697964715165043e+01
pressure[sink_7] 1.3371475892865174e+01
pressure[sink_8] 5.3041656554620708e+01
pressure[sink_9] 63.3830865046654
pressure[sink_10] 7.4840709270712168e+01
pressure[sink_11] 7.4689007963108622e+01
pressure[sink_12] 1.01325
pressure[sink_13] 7.4381448796254730e+01
pressure[sink_14] 7.4369991649166309e+01
pressure[sink_15] 7.4960786017111673e+01
pressure[sink_16] 7.3667358128290942e+01
pressure[sink_17] 5.1962264436746125e+01
pressure[sink_18] 62.7913440108657
pressure[sink_19] 77.959871563584
pressure[sink_20] 5.6174772671249293e+01
pressure[sink_21] 1.01325
pressure[sink_22] 1.1660656247132680e+01
pressure[sink_23] 8.0229155422998133e+01
pressure[sink_24] 1.01325
pressure[sink_25] 7.4506900426389180e+01
pressure[sink_26] 6.5340764672550009e+01
pressure[sink_27] 8.0866291377726043e+01
pressure[sink_28] 76.4658079673408
pressure[sink_29] 7.6761090240957969e+01
interdiction[source_1,sink_3] 0
interdiction[innode_1,sink_16] 0
interdiction[innode_6,sink_13] 0
interdiction[sink_13,sink_14] 0
interdiction[sink_14,sink_10] 0
interdiction[sink_25,sink_26] 0
interdiction[sink_26,sink_9] 0
interdiction[sink_9,sink_18] 0
interdiction[sink_26,sink_4] 0
interdiction[sink_4,sink_20] 0
interdiction[sink_18,sink_6] 1
interdiction[sink_25,innode_8] 0
interdiction[sink_6,sink_7] 0
interdiction[sink_6,sink_22] 0
interdiction[sink_7,sink_24] 0
interdiction[sink_22,sink_1] 0
interdiction[sink_24,sink_21] 0
interdiction[sink_21,sink_12] 0
interdiction[sink_7,sink_5] 0
interdiction[sink_5,sink_17] 0
interdiction[sink_17,sink_4] 0
interdiction[sink_17,sink_8] 0
interdiction[sink_3,sink_23] 0
interdiction[sink_8,sink_20] 0
interdiction[sink_25,sink_20] 0
interdiction[sink_25,sink_15] 0
interdiction[sink_15,sink_29] 0
interdiction[sink_29,sink_28] 0
interdiction[sink_29,sink_2] 0
interdiction[sink_2,sink_15] 0
interdiction[sink_29,innode_7] 0
interdiction[innode_4,sink_19] 0
interdiction[sink_19,innode_3] 1
interdiction[innode_4,innode_5] 0
interdiction[sink_27,innode_5] 0
interdiction[sink_27,sink_19] 1
interdiction[sink_10,sink_11] 0
interdiction[sink_10,innode_2] 0
interdiction[sink_10,innode_3] 0
interdiction[innode_6,sink_25] 0
interdiction[sink_11,innode_1] 0
interdiction[sink_19,innode_2] 0
interdiction[source_3,innode_4] 0
interdiction[source_2,innode_7] 0
interdiction[sink_3,innode_8] 0
WCcheckFlow[source_1,sink_3] 39
WCcheckFlow[innode_1,sink_16] 1
WCcheckFlow[innode_6,sink_13] 13
WCcheckFlow[sink_13,sink_14] 12
WCcheckFlow[sink_14,sink_10] 11
WCcheckFlow[sink_25,sink_26] 15
WCcheckFlow[sink_26,sink_9] 2
WCcheckFlow[sink_9,sink_18] 1
WCcheckFlow[sink_26,sink_4] 12
WCcheckFlow[sink_4,sink_20] 1
WCcheckFlow[sink_18,sink_6] 0
WCcheckFlow[sink_25,innode_8] -36
WCcheckFlow[sink_6,sink_7] -3
WCcheckFlow[sink_6,sink_22] 2
WCcheckFlow[sink_7,sink_24] 3
WCcheckFlow[sink_22,sink_1] 1
WCcheckFlow[sink_24,sink_21] 2
WCcheckFlow[sink_21,sink_12] 1
WCcheckFlow[sink_7,sink_5] -7
WCcheckFlow[sink_5,sink_17] -8
WCcheckFlow[sink_17,sink_4] -10
WCcheckFlow[sink_17,sink_8] 1
WCcheckFlow[sink_3,sink_23] 1
WCcheckFlow[sink_8,sink_20] 0
WCcheckFlow[sink_25,sink_20] 0
WCcheckFlow[sink_25,sink_15] 6
WCcheckFlow[sink_15,sink_29] 5
WCcheckFlow[sink_29,sink_28] 1
WCcheckFlow[sink_29,sink_2] 1
WCcheckFlow[sink_2,sink_15] 0
WCcheckFlow[sink_29,innode_7] 2
WCcheckFlow[innode_4,sink_19] -4
WCcheckFlow[sink_19,innode_3] 0
WCcheckFlow[innode_4,innode_5] 2
WCcheckFlow[sink_27,innode_5] -1
WCcheckFlow[sink_27,sink_19] 0
WCcheckFlow[sink_10,sink_11] 3
WCcheckFlow[sink_10,innode_2] 6
WCcheckFlow[sink_10,innode_3] 1
WCcheckFlow[innode_6,sink_25] -14
WCcheckFlow[sink_11,innode_1] 2
WCcheckFlow[sink_19,innode_2] -5
WCcheckFlow[source_3,innode_4] -1
WCcheckFlow[source_2,innode_7] -1
WCcheckFlow[sink_3,innode_8] 37
